problems/csplib-prob019/MagicSquares-models/compact/O2/lingeling/model-03-solution000001.eprime-solution
language ESSENCE' 1.0

letting s be 15
letting square be [[4, 3, 8; int(1..3)], [9, 5, 1; int(1..3)], [2, 7, 6; int(1..3)]; int(1..3)]
